DIMENSION: 10
EDGE_WEIGHT_TYPE: EXPLICIT
EDGE_WEIGHT_FORMAT: FULL_MATRIX
EDGE_WEIGHT_SECTION:
32767 15 33 32767 70 16 67 45 61 32767 
15 32767 71 32767 32767 8 12 69 90 25 
33 71 32767 32767 39 72 32767 32767 32767 32767 
32767 32767 32767 32767 32767 32767 32767 32767 95 32767 
70 32767 39 32767 32767 32767 39 32767 63 32767 
16 8 72 32767 32767 32767 32767 70 32767 11 
67 12 32767 32767 39 32767 32767 32767 32767 46 
45 69 32767 32767 32767 70 32767 32767 32767 17 
61 90 32767 95 63 32767 32767 32767 32767 32767 
32767 25 32767 32767 32767 11 46 17 32767 32767 
EOF